g3 3 1 0	# problem model
 60 32 1 0 26	# vars, constraints, objectives, ranges, eqns
 0 0	# nonlinear constraints, objectives
 0 0	# network constraints: nonlinear, linear
 0 0 0	# nonlinear vars in constraints, objectives, both
 0 0 0 1	# linear network variables; functions; arith, flags
 0 0 0 0 0	# discrete variables: binary, integer, nonlinear (b,c,o)
 91 9	# nonzeros in Jacobian, gradients
 0 0	# max name lengths: constraints, variables
 0 0 0 0 0	# common exprs: b,c,o,c1,o1
b
0 0 10
0 0 1
0 0 2
0 0 10
0 0 10
0 0 1
0 0 10
0 0 1
0 0 1
0 0 10
0 0 1
0 0 1
0 0 10
0 0 1
0 0 1
0 0 10
0 0 1
0 0 10
0 0 1
0 0 1
0 0 10
0 0 1
0 0 10
0 0 1
0 0 1
0 0 10
0 0 1
0 0 1
0 0 10
0 0 1
0 0 10
0 0 1
0 0 1
0 0 10
0 0 1
0 0 1
0 0 10
0 0 1
0 0 10
0 0 10
0 0 10
0 0 10
0 0 10
0 0 10
0 0 10
0 0 10
0 0 10
0 0 10
0 0 10
0 0 10
0 0 10
0 0 10
0 0 10
0 0 1
0 0 1
0 0 1
0 0 1
0 0 1
0 0 1
0 0 1
x60
0 1
1 1
2 1
3 1
4 1
5 1
6 1
7 1
8 1
9 1
10 1
11 1
12 1
13 1
14 1
15 1
16 1
17 1
18 1
19 1
20 1
21 1
22 1
23 1
24 1
25 1
26 1
27 1
28 1
29 1
30 1
31 1
32 1
33 1
34 1
35 1
36 1
37 1
38 1
39 1
40 1
41 1
42 1
43 1
44 1
45 1
46 1
47 1
48 1
49 1
50 1
51 1
52 1
53 1
54 1
55 1
56 1
57 1
58 1
59 1
r
4 0
4 0
4 0
4 0
4 0
4 0
4 0
4 0
4 0
4 1
4 1
2 -500
2 1500
2 2000
2 -100
2 1500
2 -1000
4 0
4 0
4 -1
4 0
4 0
4 0
4 0
4 0
4 0
4 0
4 1
4 0
4 0
4 0
4 0
C0
n0
C1
n0
C2
n0
C3
n0
C4
n0
C5
n0
C6
n0
C7
n0
C8
n0
C9
n0
C10
n0
C11
n0
C12
n0
C13
n0
C14
n0
C15
n0
C16
n0
C17
n0
C18
n0
C19
n0
C20
n0
C21
n0
C22
n0
C23
n0
C24
n0
C25
n0
C26
n0
C27
n0
C28
n0
C29
n0
C30
n0
C31
n0
O0 0
n1140
k59
1
2
4
5
6
8
9
10
12
13
14
16
17
18
20
21
22
23
24
26
27
28
29
30
32
33
34
35
36
37
38
39
41
42
43
45
46
47
48
49
50
51
52
53
54
55
56
57
58
59
60
61
62
66
71
75
77
82
86
J0 2
19 -1
53 1
J1 2
5 -1
54 1
J2 2
24 -1
54 1
J3 2
32 -1
55 1
J4 2
14 -1
56 1
J5 2
8 -1
57 1
J6 2
35 -1
58 1
J7 2
11 -1
59 1
J8 3
2 -1
57 1
59 1
J9 4
53 1
54 1
55 1
56 1
J10 3
57 1
58 1
59 1
J11 2
53 -2400
54 5800
J12 2
53 -2400
55 3500
J13 2
54 -5800
55 3500
J14 2
57 -2700
58 8000
J15 2
57 -2700
59 4200
J16 2
58 -8000
59 4200
J17 3
0 1
1 1
38 -1
J18 3
2 1
3 1
39 -1
J19 2
4 1
40 -1
J20 4
8 -1
9 1
10 1
42 -1
J21 4
11 -1
12 1
13 1
43 -1
J22 3
22 1
23 1
47 -1
J23 4
27 -1
28 1
29 1
49 -1
J24 4
5 -1
6 1
7 1
41 -1
J25 4
14 -1
15 1
16 1
44 -1
J26 3
17 1
18 1
45 -1
J27 3
30 1
31 1
50 -1
J28 4
24 -1
25 1
26 1
48 -1
J29 4
19 -1
20 1
21 1
46 -1
J30 4
32 -1
33 1
34 1
51 -1
J31 4
35 -1
36 1
37 1
52 -1
G0 9
5 510
8 4170
11 4620
14 810
19 720
24 1230
27 4935
32 1050
35 2400
